============================[ Problem Statistics ]=============================|                                                                             ||  Number of variables:          4242                                         ||  Number of clauses:           10262                                         ||  Parse time:                   0.65 s                                       ||                                                                             |============================[ Search Statistics ]==============================| Conflicts |          ORIGINAL         |          LEARNT          | Progress ||           |    Vars  Clauses Literals |    Limit  Clauses Lit/Cl |          |===============================================================================|       100 |    1591     6467  1036398 |     2371      100     53 | 62.501 % ||       250 |    1591     6467  1036398 |     2608      250     75 | 62.495 % |===============================================================================restarts              : 3conflicts             : 355            (362 /sec)decisions             : 621            (0.00 % random) (632 /sec)propagations          : 11966          (12185 /sec)conflict literals     : 28892          (94.62 % deleted)CPU time              : 0.982 sSATISFIABLE